n = 33;
lu = [|-850, 257
      |-1004, 76
      |-1088, -768
      |-367, 969
      |-75, 14
      |404, 682
      |-771, 9
      |581, 918
      |326, 508
      |-93, 531
      |-403, 516
      |-584, 1016
      |-256, 948
      |116, 1058
      |-334, 925
      |-399, 240
      |-1077, 489
      |-522, 936
      |-198, 621
      |-237, 434
      |-40, 936
      |-940, -122
      |804, 988
      |123, 990
      |-743, 765
      |-128, 147
      |-403, -257
      |-829, -362
      |-108, 442
      |-1023, 687
      |336, 469
      |-393, 913
      |-741, -50|];
